Gurobi Optimizer version 9.1.2 build v9.1.2rc0 (linux64)
Thread count: 36 physical cores, 72 logical processors, using up to 32 threads
Optimize a model with 12 rows, 57 columns and 590 nonzeros
Model fingerprint: 0xf32eec78
Model has 47 quadratic constraints
Coefficient statistics:
  Matrix range     [2e-05, 3e+00]
  QMatrix range    [1e+00, 1e+00]
  QLMatrix range   [1e+00, 1e+00]
  Objective range  [8e-03, 7e-01]
  Bounds range     [1e+00, 1e+00]
  RHS range        [1e+00, 1e+00]
Presolve removed 9 rows and 0 columns

Continuous model is non-convex -- solving as a MIP.

Presolve removed 9 rows and 0 columns
Presolve time: 0.00s
Presolved: 189 rows, 57 columns, 443 nonzeros
Presolved model has 47 bilinear constraint(s)
Variable types: 57 continuous, 0 integer (0 binary)

Root relaxation: objective -1.743721e+00, 44 iterations, 0.00 seconds

    Nodes    |    Current Node    |     Objective Bounds      |     Work
 Expl Unexpl |  Obj  Depth IntInf | Incumbent    BestBd   Gap | It/Node Time

     0     0   -1.74372    0   38          -   -1.74372      -     -    0s
H    0     0                       0.6147548   -1.74372   384%     -    0s
     0     0   -1.64739    0    1    0.61475   -1.64739   368%     -    0s
H    0     0                      -1.6450460   -1.64739  0.14%     -    0s
     0     0     cutoff    0        -1.64505   -1.64505  0.00%     -    0s

Cutting planes:
  RLT: 25
  BQP: 3

Explored 1 nodes (76 simplex iterations) in 0.01 seconds
Thread count was 32 (of 72 available processors)

Solution count 2: -1.64505 0.614755 
No other solutions better than -1.64505

Optimal solution found (tolerance 1.00e-04)
Best objective -1.645045978473e+00, best bound -1.645045978473e+00, gap 0.0000%

User-callback calls 78, time in user-callback 0.00 sec
Gurobi Optimizer version 9.1.2 build v9.1.2rc0 (linux64)
Thread count: 36 physical cores, 72 logical processors, using up to 32 threads
Optimize a model with 24 rows, 125 columns and 2580 nonzeros
Model fingerprint: 0x20b79acb
Model has 105 quadratic constraints
Coefficient statistics:
  Matrix range     [6e-06, 5e+01]
  QMatrix range    [1e+00, 1e+00]
  QLMatrix range   [1e+00, 1e+00]
  Objective range  [1e-02, 1e+00]
  Bounds range     [1e+00, 1e+00]
  RHS range        [1e+00, 1e+00]
Presolve removed 10 rows and 0 columns

Continuous model is non-convex -- solving as a MIP.

Presolve removed 10 rows and 0 columns
Presolve time: 0.00s
Presolved: 429 rows, 125 columns, 2142 nonzeros
Presolved model has 105 bilinear constraint(s)
Variable types: 125 continuous, 0 integer (0 binary)

Root relaxation: objective -5.560067e+00, 147 iterations, 0.00 seconds

    Nodes    |    Current Node    |     Objective Bounds      |     Work
 Expl Unexpl |  Obj  Depth IntInf | Incumbent    BestBd   Gap | It/Node Time

     0     0   -5.56007    0   95          -   -5.56007      -     -    0s
H    0     0                      -0.0257155   -5.56007      -     -    0s
     0     0   -4.59941    0   83   -0.02572   -4.59941      -     -    0s
H    0     0                      -2.2961632   -4.59941   100%     -    0s
     0     0   -4.53639    0   77   -2.29616   -4.53639  97.6%     -    0s
     0     0   -4.42675    0   83   -2.29616   -4.42675  92.8%     -    0s
     0     0   -4.40876    0   72   -2.29616   -4.40876  92.0%     -    0s
     0     0   -4.39356    0   88   -2.29616   -4.39356  91.3%     -    0s
     0     0   -4.38320    0   88   -2.29616   -4.38320  90.9%     -    0s
     0     0   -4.37702    0   63   -2.29616   -4.37702  90.6%     -    0s
H    0     0                      -2.3937580   -4.37702  82.9%     -    0s
     0     0   -4.37419    0   83   -2.39376   -4.37419  82.7%     -    0s
     0     0   -4.36638    0   83   -2.39376   -4.36638  82.4%     -    0s
H    0     0                      -2.4481892   -4.36638  78.4%     -    0s
H    0     0                      -2.4481892   -4.36638  78.4%     -    0s
     0     0   -4.36634    0   83   -2.44819   -4.36634  78.3%     -    0s
     0     0   -4.36466    0   83   -2.44819   -4.36466  78.3%     -    0s
     0     0   -4.36453    0   83   -2.44819   -4.36453  78.3%     -    0s
     0     0   -4.36345    0   83   -2.44819   -4.36345  78.2%     -    0s
H    0     0                      -3.2951543   -4.36345  32.4%     -    0s
H    0     0                      -3.5018321   -4.36345  24.6%     -    0s
H    0     0                      -3.5449693   -4.36345  23.1%     -    0s
     0     2   -4.36345    0   83   -3.54497   -4.36345  23.1%     -    0s
*  599   429              23      -3.5512855   -3.95097  11.3%  33.4    0s
*  600   429              23      -3.5514562   -3.95097  11.2%  33.3    0s
*  689   429              25      -3.5565174   -3.95097  11.1%  31.2    0s
*  805   521              29      -3.5945774   -3.95097  9.91%  29.4    0s
*  918   617              33      -3.5946451   -3.93616  9.50%  27.7    0s
*  975   617              21      -3.5980325   -3.93616  9.40%  26.8    0s
* 1091   794              21      -3.7302240   -3.88718  4.21%  25.5    0s
* 1312   748              24      -3.7347126   -3.83930  2.80%  23.5    0s
* 1313   748              24      -3.7347127   -3.83930  2.80%  23.5    0s
* 1354   748              24      -3.7392529   -3.83930  2.68%  23.3    0s
* 1355   748              24      -3.7392530   -3.83930  2.68%  23.2    0s
* 1524   748              18      -3.7536424   -3.83930  2.28%  21.7    0s
* 1552   821              28      -3.7595745   -3.80622  1.24%  21.5    0s
* 1712   821              20      -3.7624267   -3.78850  0.69%  20.1    0s
* 1779   821              22      -3.7632467   -3.78850  0.67%  19.6    0s
* 1864   859              34      -3.7664650   -3.78850  0.59%  18.9    0s
* 1876   859              20      -3.7683442   -3.78850  0.53%  18.9    0s
* 2240   814              22      -3.7712708   -3.78078  0.25%  16.8    0s
* 2302   814              24      -3.7728821   -3.77711  0.11%  16.7    0s
* 2351   814              20      -3.7739890   -3.77711  0.08%  16.4    0s
* 2372   814              20      -3.7749602   -3.77711  0.06%  16.3    0s
* 2670   222              22      -3.7750674   -3.77702  0.05%  15.1    0s
* 2807   222              19      -3.7750806   -3.77508  0.00%  14.4    0s

Cutting planes:
  RLT: 63
  BQP: 5
  PSD: 51

Explored 3214 nodes (40847 simplex iterations) in 0.76 seconds
Thread count was 32 (of 72 available processors)

Solution count 10: -3.77508 -3.77507 -3.77496 ... -3.76243
No other solutions better than -3.77508

Optimal solution found (tolerance 1.00e-04)
Best objective -3.775080585545e+00, best bound -3.775080585545e+00, gap 0.0000%

User-callback calls 6760, time in user-callback 0.00 sec



objective value: -3.775080585544916
objective bound: -3.775080585544916
x_opt: [0.0, 0.0, 1.0, 0.0, 1.0, 0.6715546827890347, 1.0, 1.0, 1.0, 0.0, 0.0, 0.19782110161342825, 0.0, 0.0, 0.0, 0.4940541717952642, 0.0, 0.0, 0.005517301964108679, 0.0]
GUROBI solution time: 0.7614929676055908




